Solving original (integer) problem with strategy gdp.binary_multiplication...
--- Job model.gms Start 02/19/26 00:43:20 52.2.0 d8e408be LEX-LEG x86 64bit/Linux
--- Applying:
    /package/gams/52.2/gmsprmun.txt
--- GAMS Parameters defined
    Input /local/scratch/a/sgusev/repos/k_means/data/gams_gurobi_gdp.binary_multiplication/no_mode/2026-02-19_00-43-19/original/model.gms
    Output /local/scratch/a/sgusev/repos/k_means/data/gams_gurobi_gdp.binary_multiplication/no_mode/2026-02-19_00-43-19/original/output.lst
    ScrDir /local/scratch/a/sgusev/repos/k_means/data/gams_gurobi_gdp.binary_multiplication/no_mode/2026-02-19_00-43-19/original/225a/
    SysDir /package/gams/52.2/
    CurDir /local/scratch/a/sgusev/repos/k_means/data/gams_gurobi_gdp.binary_multiplication/no_mode/2026-02-19_00-43-19/original/
    LogOption 3
    AppendLog 1
Licensee: David Bernal / SECQUOIA Research Group         G251008+0003Ac-GEN
          Purdue University, Davidson School of Chemical EngineeringDCE4838
          225a/gamslice.dat
          5a82958a-fbca-4a23
          node:66820903 mem:995 cores:48 ipport:40843 v:2                  
          Evaluation license: Not for commercial or production use
          The time-limited license stops working on : Jun 30, 2027
System information: 48 physical cores and 995 Gb physical memory detected
GAMS 52.2.0   Copyright (C) 1987-2025 GAMS Development. All rights reserved
--- Starting compilation
--- model.gms(244) 2 Mb
--- $echo File /local/scratch/a/sgusev/repos/k_means/data/gams_gurobi_gdp.binary_multiplication/no_mode/2026-02-19_00-43-19/original/gurobi.opt
--- model.gms(435) 2 Mb
--- Starting execution: elapsed 0:00:00.006
--- model.gms(253) 3 Mb
--- Generating MINLP model GAMS_MODEL
--- model.gms(257) 5 Mb
---   59 rows  66 columns  271 non-zeroes
---   630 nl-code  210 nl-non-zeroes
---   42 discrete-columns
--- Range statistics (absolute non-zero finite values)
--- RHS       [min, max] : [ 1.000E+00, 1.000E+00] - Zero values observed as well
--- Bound     [min, max] : [ 1.000E+00, 8.400E+01] - Zero values observed as well
--- Matrix    [min, max] : [ 2.271E-01, 2.688E+00] - Zero values observed as well
--- model.gms(257) 3 Mb
--- Executing GUROBI (Solvelink=5): elapsed 0:00:00.009
Reading parameter(s) from "/local/scratch/a/sgusev/repos/k_means/data/gams_gurobi_gdp.binary_multiplication/no_mode/2026-02-19_00-43-19/original/gurobi.opt"
>>  NonConvex 2
>>  Threads 1
>>  MIPGap 1e-06
>>  MIPGapAbs 1e-10
>>  FeasibilityTol 1e-06
>>  OptimalityTol 1e-06
>>  IntFeasTol 1e-05
Finished reading from "/local/scratch/a/sgusev/repos/k_means/data/gams_gurobi_gdp.binary_multiplication/no_mode/2026-02-19_00-43-19/original/gurobi.opt"

... GRB_LICENSE_FILE = /local/scratch/a/sgusev/gurobi.lic

    Gurobi           52.2.0 d8e408be Dec 8, 2025           LEG x86 64bit/Linux    

... GAMS/Gurobi Link license.
... GMO Q Extraction (ThreePass): 0.00s

    Gurobi Optimizer version 13.0.0 build v13.0.0rc1 (linux64 - "Oracle Linux Server 9.7")
    
    CPU model: AMD EPYC 7643 48-Core Processor, instruction set [SSE2|AVX|AVX2]
    Thread count: 48 physical cores, 96 logical processors, using up to 1 threads
    
    Non-default parameters:
    TimeLimit  300
    MIPGap  1e-06
    LogToConsole  0
    NonConvex  2
    Threads  1
    
    Optimize a model with 58 rows, 107 columns and 88 nonzeros (Min)
    Model fingerprint: 0xf872ef48
    Model has 14 linear objective coefficients
    Model has 42 general nonlinear constraints (168 nonlinear terms)
    Variable types: 65 continuous, 42 integer (0 binary)
    Coefficient statistics:
      Matrix range     [1e+00, 1e+00]
      Objective range  [1e+00, 1e+00]
      Bounds range     [1e+00, 8e+01]
      RHS range        [1e+00, 1e+00]
      NLCon coe range  [2e-02, 1e+00]
    Presolve model has 42 nlconstr
    Added 294 variables to disaggregate expressions
    Presolve removed 42 rows and 0 columns
    Presolve time: 0.00s
    Presolved: 730 rows, 444 columns, 1684 nonzeros
    Presolved model has 126 bilinear constraint(s)
    
    Solving non-convex MIQCP to global optimality
    
    Variable types: 402 continuous, 42 integer (42 binary)
    Found heuristic solution: objective 13.6503241
    
    Root relaxation: objective 0.000000e+00, 222 iterations, 0.00 seconds (0.00 work units)
    
        Nodes    |    Current Node    |     Objective Bounds      |     Work
     Expl Unexpl |  Obj  Depth IntInf | Incumbent    BestBd   Gap | It/Node Time
    
         0     0    0.00000    0   93   13.65032    0.00000   100%     -    0s
         0     0    0.00000    0  122   13.65032    0.00000   100%     -    0s
         0     0    0.00000    0  122   13.65032    0.00000   100%     -    0s
         0     0    0.00000    0  125   13.65032    0.00000   100%     -    0s
         0     0    0.00000    0  128   13.65032    0.00000   100%     -    0s
    H    0     0                      12.3899055    0.00000   100%     -    0s
         0     0    0.00000    0  128   12.38991    0.00000   100%     -    0s
         0     0    0.00000    0  146   12.38991    0.00000   100%     -    0s
         0     0    0.00000    0  146   12.38991    0.00000   100%     -    0s
         0     0    0.00000    0  144   12.38991    0.00000   100%     -    0s
         0     0    0.00000    0  152   12.38991    0.00000   100%     -    0s
         0     0    0.00000    0  142   12.38991    0.00000   100%     -    0s
    H    0     0                      11.9641112    0.00000   100%     -    0s
         0     0    0.00000    0  146   11.96411    0.00000   100%     -    0s
         0     0    0.00000    0  137   11.96411    0.00000   100%     -    0s
         0     0    0.00000    0  136   11.96411    0.00000   100%     -    0s
         0     0    0.00000    0  136   11.96411    0.00000   100%     -    0s
         0     0    0.00000    0  136   11.96411    0.00000   100%     -    0s
    H    0     0                      10.6591027    0.00000   100%     -    0s
    H    0     0                      10.6450819    0.00000   100%     -    0s
    H    0     0                       7.0814135    0.00000   100%     -    0s
         0     2    0.00000    0  136    7.08141    0.00000   100%     -    0s
    H    6     6                       6.8545692    0.00000   100%  20.7    0s
    H    8     8                       6.7928348    0.00000   100%  21.9    0s
    H    8     8                       6.1990276    0.00000   100%  21.9    0s
    H    8     8                       6.1844822    0.00000   100%  21.9    0s
    H   11    11                       5.3682239    0.00000   100%  18.2    0s
    H   78    56                       5.2158040    0.00000   100%  16.7    0s
    H   78    55                       5.1420954    0.00000   100%  16.7    0s
    H  550   305                       4.7664383    0.00000   100%  14.2    0s
    H  570   321                       4.7664383    0.00000   100%  14.0    0s
    H  754   423                       4.7040219    0.00000   100%  18.3    1s
    H  756   405                       4.7040219    0.00000   100%  18.3    1s
    *  906   479             125       4.7040029    0.00000   100%  16.4    1s
    H 3454   737                       4.6564391    2.38559  48.8%  18.7    4s
    H 3455   728                       4.6229252    2.38559  48.4%  18.7    4s
    H 3461   730                       4.6229252    2.38559  48.4%  18.6    4s
    H 3519   784                       4.6229252    2.38559  48.4%  18.5    4s
      4506   896    4.40516   27  128    4.62293    2.85640  38.2%  18.2    5s
     10501  1387     cutoff   52         4.62293    4.12780  10.7%  14.4   10s
     17672  1904     cutoff   52         4.62293    4.31821  6.59%  12.1   15s
     24546  2272     cutoff   61         4.62293    4.43701  4.02%  11.4   20s
     32052  2650     cutoff   65         4.62293    4.50095  2.64%  10.6   25s
     39729  2361     cutoff   60         4.62293    4.54758  1.63%  10.1   30s
     47226  2694    4.58082   53   70    4.62293    4.57705  0.99%   9.7   35s
    *53222  2984             117       4.6229028    4.58872  0.74%   9.5   38s
     54470  2850    4.60095   64   70    4.62290    4.59131  0.68%   9.5   40s
     61687  2589     cutoff   79         4.62290    4.60699  0.34%   9.3   45s
     68985  3333    4.62243   77   70    4.62290    4.61278  0.22%   9.1   50s
     76731  3561    4.62187   79   84    4.62290    4.61538  0.16%   8.8   55s
     85138  3166     cutoff   79         4.62290    4.61803  0.11%   8.5   60s
     93488  3478     cutoff   92         4.62290    4.62023  0.06%   8.3   65s
     102475  3665     cutoff   85         4.62290    4.62081  0.05%   8.0   70s
     111078  3436    4.62193   84   56    4.62290    4.62130  0.03%   7.8   75s
     119779  2725    4.62207   89   70    4.62290    4.62185  0.02%   7.6   80s
     128429  3055     cutoff  100         4.62290    4.62219  0.02%   7.5   85s
     137652  3244    4.62251   88   84    4.62290    4.62238  0.01%   7.3   90s
     146716  3212    4.62283  102   56    4.62290    4.62253  0.01%   7.2   95s
     155837  3273    4.62285  103   56    4.62290    4.62265  0.01%   7.1  100s
     165420  3092     cutoff   99         4.62290    4.62274  0.00%   7.0  105s
     174968  3168     cutoff  106         4.62290    4.62277  0.00%   7.0  110s
     184556  3090     cutoff  107         4.62290    4.62279  0.00%   6.9  115s
     194337  2617     cutoff   96         4.62290    4.62282  0.00%   6.8  120s
     203649   959     cutoff  104         4.62290    4.62288  0.00%   6.7  125s
    
    Cutting planes:
      Gomory: 2
      Implied bound: 4
      MIR: 7
      Flow cover: 40
      RLT: 6
    
    Explored 204800 nodes (1378105 simplex iterations) in 125.64 seconds (87.07 work units)
    Thread count was 1 (of 96 available processors)
    
    Solution count 10: 4.6229 4.62293 4.65644 ... 6.18448
    
    Optimal solution found (tolerance 1.00e-06)
    Warning: max constraint violation (2.6163e-06) exceeds tolerance
    Warning: max general constraint violation (2.6163e-06) exceeds tolerance
    Best objective 4.622902784680e+00, best bound 4.622898174576e+00, gap 0.0001%
    
    User-callback calls 204832, time in user-callback 0.01 sec

... Solving fixed model...

    Gurobi Optimizer version 13.0.0 build v13.0.0rc1 (linux64 - "Oracle Linux Server 9.7")
    
    CPU model: AMD EPYC 7643 48-Core Processor, instruction set [SSE2|AVX|AVX2]
    Thread count: 48 physical cores, 96 logical processors, using up to 1 threads
    
    Non-default parameters:
    TimeLimit  300
    MIPGap  1e-06
    LogToConsole  0
    NonConvex  2
    Threads  1
    
    Optimize a model with 58 rows, 107 columns and 88 nonzeros (Min)
    Model fingerprint: 0x5f7af005
    Model has 14 linear objective coefficients
    Coefficient statistics:
      Matrix range     [1e+00, 1e+00]
      Objective range  [1e+00, 1e+00]
      Bounds range     [1e-02, 1e+00]
      RHS range        [1e+00, 1e+00]
    Presolve removed 58 rows and 107 columns
    Presolve time: 0.00s
    Presolve: All rows and columns removed
    Iteration    Objective       Primal Inf.    Dual Inf.      Time
           0    4.6229028e+00   0.000000e+00   0.000000e+00      0s
    
    Solved in 0 iterations and 0.00 seconds (0.00 work units)
    Optimal objective  4.622902785e+00
    
    User-callback calls 0, time in user-callback 0.00 sec

--- Reading solution for model GAMS_MODEL
***
*** Solver did not provide marginals for model GAMS_MODEL
***
--- Executing after solve: elapsed 0:02:05.681
--- model.gms(260) 3 Mb
--- model.gms(435) 5 Mb
--- Putfile results /local/scratch/a/sgusev/repos/k_means/data/gams_gurobi_gdp.binary_multiplication/no_mode/2026-02-19_00-43-19/original/results.dat
--- Putfile statresults /local/scratch/a/sgusev/repos/k_means/data/gams_gurobi_gdp.binary_multiplication/no_mode/2026-02-19_00-43-19/original/resultsstat.dat
*** Status: Normal completion
--- Job model.gms Stop 02/19/26 00:45:25 elapsed 0:02:05.681
Original problem solved. Time taken: 126.16255497932434 seconds
Original objective value: 4.622902784679592
